100
128
33
58
55
10
6
39
56
41
17
41
55
1
47
23
37
61
15
27
18
15
30
21
11
42
36
31
29
27
12
48
37
17
50
61
16
59
11
33
2
3
24
56
30
12
61
48
41
30
18
33
18
53
12
17
18
2
27
31
14
2
25
19
12
16
20
55
18
43
45
22
11
12
50
54
8
25
49
6
31
53
46
50
54
3
32
1
15
31
10
41
49
38
1
1
39
31
54
1
61
12